Normalized Data/p03_19_normalized_split0.vrp
NAME:p03_19_NORMALIZED_split
BEST_KNOWN: 0
COMMENT: 0
DIMENSION: 421
CAPACITY: 100
EDGE_WEIGHT_FORMAT: FUNCTION
EDGE_WEIGHT_TYPE: EXACT_2D
NODE_COORD_SECTION
1 0.00000 0.00000
2 -2 -37
3 -2 -37
4 -2 -37
5 49 -46
6 49 -46
7 49 -46
8 49 -46
9 49 -46
10 49 -46
11 47 -29
12 47 -29
13 47 -29
14 47 -29
15 47 -29
16 -5 -16
17 -5 -16
18 -5 -16
19 -5 -16
20 -5 -16
21 -14 31
22 -14 31
23 -14 31
24 -14 31
25 -14 31
26 37 -47
27 37 -47
28 37 -47
29 37 -47
30 -38 39
31 -38 39
32 -38 39
33 -38 39
34 -38 39
35 -44 35
36 -44 35
37 1 -46
38 1 -46
39 1 -46
40 1 -46
41 1 -46
42 1 -46
43 1 -46
44 33 37
45 33 37
46 33 37
47 33 37
48 33 37
49 -6 -23
50 -6 -23
51 -6 -23
52 -6 -23
53 26 -20
54 26 -20
55 26 -20
56 26 -20
57 26 -20
58 26 -20
59 8 -42
60 8 -42
61 8 -42
62 14 -39
63 14 -39
64 -45 -28
65 -45 -28
66 -45 -28
67 -45 -28
68 -45 -28
69 -45 -28
70 -22 42
71 -22 42
72 -22 42
73 -20 -29
74 -20 -29
75 -20 -29
76 -20 -29
77 -20 -29
78 -20 -29
79 -11 -12
80 -11 -12
81 -11 -12
82 -11 -12
83 17 29
84 17 29
85 17 29
86 17 29
87 -35 -26
88 -35 -26
89 -35 -26
90 -35 -26
91 -35 -26
92 -35 -26
93 -35 -26
94 20 -30
95 20 -30
96 20 -30
97 20 -30
98 20 -30
99 19 28
100 19 28
101 19 28
102 37 -4
103 37 -4
104 37 -4
105 37 -4
106 14 -31
107 14 -31
108 14 -31
109 14 -31
110 14 -31
111 14 -31
112 -23 33
113 -23 33
114 -23 33
115 -23 33
116 3 -22
117 3 -22
118 3 -22
119 3 -22
120 3 -22
121 3 -22
122 3 -22
123 -11 35
124 -11 35
125 -11 35
126 -11 35
127 -11 35
128 21 2
129 21 2
130 21 2
131 21 2
132 -2 -7
133 -2 -7
134 -36 -27
135 -36 -27
136 -36 -27
137 28 -46
138 28 -46
139 23 12
140 23 12
141 23 12
142 -7 -16
143 -7 -16
144 -7 -16
145 -33 35
146 -33 35
147 -33 35
148 -33 35
149 -33 35
150 -11 -10
151 -11 -10
152 -11 -10
153 -19 3
154 -19 3
155 -19 3
156 -19 3
157 -26 -10
158 -26 -10
159 -26 -10
160 -26 -10
161 -26 -10
162 2 -8
163 2 -8
164 2 -8
165 22 43
166 22 43
167 22 43
168 22 43
169 -5 -28
170 -19 9
171 -19 9
172 -19 9
173 -19 9
174 -43 19
175 -43 19
176 -9 42
177 14 35
178 14 35
179 14 35
180 -21 17
181 -21 17
182 -21 17
183 -21 17
184 30 3
185 30 3
186 30 3
187 30 3
188 -49 9
189 -49 9
190 -49 9
191 -5 9
192 -5 9
193 -5 9
194 -5 9
195 -5 9
196 -5 9
197 -44 -34
198 -44 -34
199 -6 18
200 -6 18
201 -6 18
202 -6 18
203 -6 18
204 -6 18
205 -22 -11
206 -22 -11
207 -22 -11
208 -22 -11
209 -22 -11
210 -22 -11
211 -22 -11
212 34 -6
213 34 -6
214 34 -6
215 7 -3
216 7 -3
217 7 -3
218 -25 -24
219 -25 -24
220 -25 -24
221 -25 -24
222 41 46
223 41 46
224 41 46
225 41 46
226 41 46
227 41 46
228 41 46
229 -50 39
230 -50 39
231 -50 39
232 -50 39
233 -50 39
234 -50 39
235 23 -9
236 23 -9
237 23 -9
238 23 -9
239 23 -9
240 23 -9
241 23 -9
242 -5 -44
243 -5 -44
244 -5 -44
245 -5 -44
246 -37 13
247 -37 13
248 -37 13
249 -37 13
250 -37 13
251 25 14
252 25 14
253 25 14
254 25 14
255 -10 -29
256 -10 -29
257 -10 -29
258 -22 21
259 -22 21
260 -22 21
261 -22 21
262 -41 22
263 -41 22
264 -41 22
265 -41 22
266 -41 22
267 -41 22
268 -19 -2
269 -19 -2
270 -19 -2
271 -19 -2
272 -19 -2
273 -19 -2
274 -19 -2
275 18 46
276 18 46
277 18 46
278 18 46
279 43 15
280 43 15
281 43 15
282 43 15
283 43 15
284 43 15
285 31 5
286 31 5
287 31 5
288 31 5
289 31 5
290 -12 21
291 -12 21
292 -12 21
293 -12 21
294 -33 -35
295 -33 -35
296 -33 -35
297 -33 -35
298 -33 -35
299 -33 -35
300 -15 40
301 -15 40
302 -15 40
303 -15 40
304 20 10
305 20 10
306 20 10
307 -30 17
308 -30 17
309 -42 -44
310 -42 -44
311 -42 -44
312 -42 -44
313 -6 -28
314 -6 -28
315 -6 -28
316 -6 -28
317 -6 -28
318 20 30
319 20 30
320 20 30
321 20 30
322 20 30
323 -48 41
324 -48 41
325 -48 41
326 -48 41
327 -48 41
328 -23 7
329 -23 7
330 -23 7
331 -4 -9
332 -4 -9
333 -10 23
334 -10 23
335 -10 23
336 -10 23
337 -10 23
338 7 -10
339 7 -10
340 -36 -32
341 -36 -32
342 -36 -32
343 -24 47
344 -24 47
345 -24 47
346 -24 47
347 20 7
348 20 7
349 20 7
350 20 7
351 -19 -23
352 -19 -23
353 -19 -23
354 -19 -23
355 -19 -23
356 22 -49
357 22 -49
358 -18 -25
359 -18 -25
360 -18 -25
361 -18 -25
362 -18 -25
363 30 34
364 30 34
365 30 34
366 30 34
367 30 34
368 -18 14
369 -18 14
370 -18 14
371 -18 14
372 -18 14
373 -18 14
374 -18 14
375 27 2
376 27 2
377 39 30
378 39 30
379 39 30
380 39 30
381 39 30
382 39 30
383 19 -5
384 19 -5
385 19 -5
386 19 -5
387 19 -5
388 19 -5
389 -2 49
390 -2 49
391 -2 49
392 -11 -5
393 -11 -5
394 4 -48
395 4 -48
396 4 -48
397 38 -50
398 38 -50
399 38 -50
400 38 -50
401 38 -50
402 38 -50
403 -33 37
404 -33 37
405 -33 37
406 -33 37
407 3 -15
408 3 -15
409 3 -15
410 8 13
411 8 13
412 -36 -5
413 -36 -5
414 -36 -5
415 -36 -5
416 19 -47
417 19 -47
418 19 -47
419 19 -47
420 19 -47
421 19 -47
DEMAND_SECTION
1 0
2 20
3 20
4 5
5 20
6 10
7 1
8 1
9 1
10 1
11 10
12 1
13 1
14 1
15 1
16 20
17 10
18 1
19 1
20 1
21 10
22 1
23 1
24 1
25 1
26 20
27 5
28 1
29 1
30 20
31 20
32 5
33 1
34 1
35 20
36 1
37 20
38 10
39 5
40 1
41 1
42 1
43 1
44 20
45 1
46 1
47 1
48 1
49 20
50 20
51 1
52 1
53 20
54 20
55 5
56 1
57 1
58 1
59 20
60 20
61 5
62 20
63 10
64 10
65 5
66 1
67 1
68 1
69 1
70 20
71 20
72 5
73 20
74 10
75 5
76 1
77 1
78 1
79 10
80 5
81 1
82 1
83 20
84 5
85 1
86 1
87 20
88 10
89 5
90 1
91 1
92 1
93 1
94 10
95 5
96 1
97 1
98 1
99 20
100 5
101 1
102 10
103 5
104 1
105 1
106 20
107 10
108 1
109 1
110 1
111 1
112 20
113 10
114 1
115 1
116 20
117 10
118 5
119 1
120 1
121 1
122 1
123 20
124 5
125 1
126 1
127 1
128 20
129 20
130 1
131 1
132 20
133 5
134 20
135 20
136 1
137 20
138 1
139 20
140 10
141 1
142 20
143 10
144 1
145 20
146 1
147 1
148 1
149 1
150 20
151 10
152 5
153 10
154 1
155 1
156 1
157 20
158 1
159 1
160 1
161 1
162 20
163 5
164 1
165 20
166 10
167 1
168 1
169 20
170 20
171 1
172 1
173 1
174 20
175 1
176 20
177 20
178 1
179 1
180 20
181 20
182 1
183 1
184 10
185 1
186 1
187 1
188 20
189 20
190 5
191 20
192 20
193 5
194 1
195 1
196 1
197 20
198 5
199 20
200 20
201 1
202 1
203 1
204 1
205 20
206 20
207 5
208 1
209 1
210 1
211 1
212 10
213 5
214 1
215 20
216 1
217 1
218 20
219 20
220 1
221 1
222 20
223 10
224 5
225 1
226 1
227 1
228 1
229 20
230 10
231 5
232 1
233 1
234 1
235 20
236 20
237 5
238 1
239 1
240 1
241 1
242 20
243 1
244 1
245 1
246 10
247 1
248 1
249 1
250 1
251 20
252 10
253 1
254 1
255 20
256 5
257 1
258 20
259 20
260 5
261 1
262 20
263 20
264 5
265 1
266 1
267 1
268 20
269 20
270 5
271 1
272 1
273 1
274 1
275 20
276 10
277 5
278 1
279 20
280 5
281 1
282 1
283 1
284 1
285 20
286 5
287 1
288 1
289 1
290 20
291 10
292 5
293 1
294 20
295 20
296 1
297 1
298 1
299 1
300 20
301 20
302 1
303 1
304 20
305 20
306 5
307 20
308 20
309 20
310 20
311 5
312 1
313 20
314 20
315 1
316 1
317 1
318 10
319 1
320 1
321 1
322 1
323 20
324 10
325 1
326 1
327 1
328 20
329 10
330 1
331 20
332 10
333 10
334 5
335 1
336 1
337 1
338 20
339 5
340 20
341 1
342 1
343 20
344 10
345 1
346 1
347 20
348 1
349 1
350 1
351 20
352 10
353 5
354 1
355 1
356 20
357 20
358 20
359 10
360 1
361 1
362 1
363 20
364 10
365 1
366 1
367 1
368 20
369 10
370 5
371 1
372 1
373 1
374 1
375 20
376 1
377 10
378 5
379 1
380 1
381 1
382 1
383 10
384 5
385 1
386 1
387 1
388 1
389 20
390 20
391 5
392 20
393 10
394 20
395 20
396 10
397 20
398 10
399 1
400 1
401 1
402 1
403 20
404 20
405 1
406 1
407 10
408 5
409 1
410 10
411 5
412 20
413 10
414 5
415 1
416 20
417 20
418 1
419 1
420 1
421 1
DEPOT_SECTION
1
-1
EOF