Normalized Data/p03_19_normalized_split0.sol
420 -25 27 28 26 400 399 396 398 397 401 137 136 94 97 95 96 93 -34 35 230 232 233 228 231 229 325 323 326 324 322 -38 37 40 39 41 36 42 395 393 394 406 -49 48 51 50 17 18 19 16 15 330 -57 52 55 53 54 56 9 6 5 7 8 4 12 11 10 14 13 237 238 -58 60 59 61 106 108 105 109 107 110 -66 68 63 67 65 64 196 197 310 309 308 311 340 341 -71 70 69 345 344 343 342 144 147 145 -92 89 91 88 86 87 90 135 134 133 218 -100 98 99 362 364 363 366 365 318 321 83 84 82 85 409 -112 113 111 299 301 302 300 123 124 126 122 -115 116 120 119 117 168 314 315 313 312 316 -118 121 3 2 1 241 242 243 244 254 256 255 -129 127 128 130 375 374 185 184 186 101 102 103 104 212 213 211 -132 131 161 163 162 337 338 -146 148 30 29 32 33 31 405 403 404 402 114 291 -150 149 151 79 81 78 80 141 143 142 331 -154 155 152 153 327 328 169 172 171 369 368 367 -166 167 164 165 276 277 275 274 176 178 177 -170 306 307 248 247 249 245 246 187 188 189 -182 179 257 260 258 259 289 290 292 -183 284 285 287 286 288 282 283 278 279 281 280 251 252 253 250 -195 193 192 190 191 194 202 203 201 199 198 200 -208 204 209 210 205 273 270 271 269 268 272 267 -214 215 216 239 240 236 235 234 382 383 385 386 384 387 -219 217 220 339 298 293 295 294 297 296 353 354 351 -303 305 304 139 138 140 346 347 348 349 -329 173 174 263 264 266 261 265 262 180 181 372 371 370 373 -336 332 333 334 335 24 22 21 23 20 125 175 388 389 390 -352 350 76 77 75 73 74 72 357 361 358 359 360 -356 355 417 418 419 420 415 416 62 407 408 -380 379 376 377 381 378 222 227 224 225 221 223 226 45 44 47 43 46 317 319 320 410 -392 391 206 207 156 158 159 160 157 413 412 414 411 0 





OBJ=
2881.292
BEST_KNOWN=
0.000